c nIsolatedPIs 0
c maxPI 32
p cnf 234 607
c gate 33 -8 -24 0
-8 -33 0
-24 -33 0
8 24 33 0
c gate 34 8 24 0
8 -34 0
24 -34 0
-8 -24 34 0
c gate 35 -33 -34 0
-33 -35 0
-34 -35 0
33 34 35 0
c gate 36 -7 23 0
-7 -36 0
23 -36 0
7 -23 36 0
c gate 37 6 -22 0
6 -37 0
-22 -37 0
-6 22 37 0
c gate 38 7 -23 0
7 -38 0
-23 -38 0
-7 23 38 0
c gate 39 -36 -38 0
-36 -39 0
-38 -39 0
36 38 39 0
c gate 40 -37 39 0
-37 -40 0
39 -40 0
37 -39 40 0
c gate 41 -2 18 0
-2 -41 0
18 -41 0
2 -18 41 0
c gate 42 -1 17 0
-1 -42 0
17 -42 0
1 -17 42 0
c gate 43 -41 -42 0
-41 -43 0
-42 -43 0
41 42 43 0
c gate 44 2 -18 0
2 -44 0
-18 -44 0
-2 18 44 0
c gate 45 3 -19 0
3 -45 0
-19 -45 0
-3 19 45 0
c gate 46 -44 -45 0
-44 -46 0
-45 -46 0
44 45 46 0
c gate 47 -43 46 0
-43 -47 0
46 -47 0
43 -46 47 0
c gate 48 -3 19 0
-3 -48 0
19 -48 0
3 -19 48 0
c gate 49 -4 20 0
-4 -49 0
20 -49 0
4 -20 49 0
c gate 50 -48 -49 0
-48 -50 0
-49 -50 0
48 49 50 0
c gate 51 -47 50 0
-47 -51 0
50 -51 0
47 -50 51 0
c gate 52 4 -20 0
4 -52 0
-20 -52 0
-4 20 52 0
c gate 53 5 -21 0
5 -53 0
-21 -53 0
-5 21 53 0
c gate 54 -52 -53 0
-52 -54 0
-53 -54 0
52 53 54 0
c gate 55 -51 54 0
-51 -55 0
54 -55 0
51 -54 55 0
c gate 56 -5 21 0
-5 -56 0
21 -56 0
5 -21 56 0
c gate 57 -6 -22 0
-6 -57 0
-22 -57 0
6 22 57 0
c gate 58 6 22 0
6 -58 0
22 -58 0
-6 -22 58 0
c gate 59 -57 -58 0
-57 -59 0
-58 -59 0
57 58 59 0
c gate 60 -56 -59 0
-56 -60 0
-59 -60 0
56 59 60 0
c gate 61 -55 60 0
-55 -61 0
60 -61 0
55 -60 61 0
c gate 62 40 -61 0
40 -62 0
-61 -62 0
-40 61 62 0
c gate 63 -36 -62 0
-36 -63 0
-62 -63 0
36 62 63 0
c gate 64 -35 63 0
-35 -64 0
63 -64 0
35 -63 64 0
c gate 65 35 40 0
35 -65 0
40 -65 0
-35 -40 65 0
c gate 66 63 65 0
63 -66 0
65 -66 0
-63 -65 66 0
c gate 67 -64 -66 0
-64 -67 0
-66 -67 0
64 66 67 0
c gate 68 16 32 0
16 -68 0
32 -68 0
-16 -32 68 0
c gate 69 -16 -32 0
-16 -69 0
-32 -69 0
16 32 69 0
c gate 70 -68 -69 0
-68 -70 0
-69 -70 0
68 69 70 0
c gate 71 15 31 0
15 -71 0
31 -71 0
-15 -31 71 0
c gate 72 -15 -31 0
-15 -72 0
-31 -72 0
15 31 72 0
c gate 73 -71 -72 0
-71 -73 0
-72 -73 0
71 72 73 0
c gate 74 -14 -30 0
-14 -74 0
-30 -74 0
14 30 74 0
c gate 75 14 30 0
14 -75 0
30 -75 0
-14 -30 75 0
c gate 76 -74 -75 0
-74 -76 0
-75 -76 0
74 75 76 0
c gate 77 13 29 0
13 -77 0
29 -77 0
-13 -29 77 0
c gate 78 12 28 0
12 -78 0
28 -78 0
-12 -28 78 0
c gate 79 -77 -78 0
-77 -79 0
-78 -79 0
77 78 79 0
c gate 80 76 79 0
76 -80 0
79 -80 0
-76 -79 80 0
c gate 81 -74 -80 0
-74 -81 0
-80 -81 0
74 80 81 0
c gate 82 73 81 0
73 -82 0
81 -82 0
-73 -81 82 0
c gate 83 -71 -82 0
-71 -83 0
-82 -83 0
71 82 83 0
c gate 84 70 83 0
70 -84 0
83 -84 0
-70 -83 84 0
c gate 85 -13 -29 0
-13 -85 0
-29 -85 0
13 29 85 0
c gate 86 11 27 0
11 -86 0
27 -86 0
-11 -27 86 0
c gate 87 -10 -26 0
-10 -87 0
-26 -87 0
10 26 87 0
c gate 88 10 26 0
10 -88 0
26 -88 0
-10 -26 88 0
c gate 89 9 25 0
9 -89 0
25 -89 0
-9 -25 89 0
c gate 90 -88 -89 0
-88 -90 0
-89 -90 0
88 89 90 0
c gate 91 -2 -18 0
-2 -91 0
-18 -91 0
2 18 91 0
c gate 92 3 19 0
3 -92 0
19 -92 0
-3 -19 92 0
c gate 93 91 -92 0
91 -93 0
-92 -93 0
-91 92 93 0
c gate 94 1 17 0
1 -94 0
17 -94 0
-1 -17 94 0
c gate 95 2 18 0
2 -95 0
18 -95 0
-2 -18 95 0
c gate 96 -94 -95 0
-94 -96 0
-95 -96 0
94 95 96 0
c gate 97 -3 -19 0
-3 -97 0
-19 -97 0
3 19 97 0
c gate 98 -96 -97 0
-96 -98 0
-97 -98 0
96 97 98 0
c gate 99 -92 -98 0
-92 -99 0
-98 -99 0
92 98 99 0
c gate 100 -93 -99 0
-93 -100 0
-99 -100 0
93 99 100 0
c gate 101 4 100 0
4 -101 0
100 -101 0
-4 -100 101 0
c gate 102 -20 -101 0
-20 -102 0
-101 -102 0
20 101 102 0
c gate 103 -5 -21 0
-5 -103 0
-21 -103 0
5 21 103 0
c gate 104 -4 -100 0
-4 -104 0
-100 -104 0
4 100 104 0
c gate 105 -103 -104 0
-103 -105 0
-104 -105 0
103 104 105 0
c gate 106 -102 105 0
-102 -106 0
105 -106 0
102 -105 106 0
c gate 107 5 21 0
5 -107 0
21 -107 0
-5 -21 107 0
c gate 108 59 -107 0
59 -108 0
-107 -108 0
-59 107 108 0
c gate 109 -106 108 0
-106 -109 0
108 -109 0
106 -108 109 0
c gate 110 -57 -109 0
-57 -110 0
-109 -110 0
57 109 110 0
c gate 111 -39 -110 0
-39 -111 0
-110 -111 0
39 110 111 0
c gate 112 35 111 0
35 -112 0
111 -112 0
-35 -111 112 0
c gate 113 -7 -23 0
-7 -113 0
-23 -113 0
7 23 113 0
c gate 114 -34 113 0
-34 -114 0
113 -114 0
34 -113 114 0
c gate 115 -9 -25 0
-9 -115 0
-25 -115 0
9 25 115 0
c gate 116 -33 -115 0
-33 -116 0
-115 -116 0
33 115 116 0
c gate 117 -114 116 0
-114 -117 0
116 -117 0
114 -116 117 0
c gate 118 -112 117 0
-112 -118 0
117 -118 0
112 -117 118 0
c gate 119 90 -118 0
90 -119 0
-118 -119 0
-90 118 119 0
c gate 120 -87 -119 0
-87 -120 0
-119 -120 0
87 119 120 0
c gate 121 -86 -120 0
-86 -121 0
-120 -121 0
86 120 121 0
c gate 122 -11 -27 0
-11 -122 0
-27 -122 0
11 27 122 0
c gate 123 -12 -28 0
-12 -123 0
-28 -123 0
12 28 123 0
c gate 124 -78 -123 0
-78 -124 0
-123 -124 0
78 123 124 0
c gate 125 -122 124 0
-122 -125 0
124 -125 0
122 -124 125 0
c gate 126 -121 125 0
-121 -126 0
125 -126 0
121 -125 126 0
c gate 127 79 -126 0
79 -127 0
-126 -127 0
-79 126 127 0
c gate 128 -85 -127 0
-85 -128 0
-127 -128 0
85 127 128 0
c gate 129 76 -128 0
76 -129 0
-128 -129 0
-76 128 129 0
c gate 130 -74 -129 0
-74 -130 0
-129 -130 0
74 129 130 0
c gate 131 73 -130 0
73 -131 0
-130 -131 0
-73 130 131 0
c gate 132 -72 -131 0
-72 -132 0
-131 -132 0
72 131 132 0
c gate 133 84 132 0
84 -133 0
132 -133 0
-84 -132 133 0
c gate 134 -61 -133 0
-61 -134 0
-133 -134 0
61 133 134 0
c gate 135 -76 -79 0
-76 -135 0
-79 -135 0
76 79 135 0
c gate 136 -80 -135 0
-80 -136 0
-135 -136 0
80 135 136 0
c gate 137 -76 128 0
-76 -137 0
128 -137 0
76 -128 137 0
c gate 138 -129 -137 0
-129 -138 0
-137 -138 0
129 137 138 0
c gate 139 -136 138 0
-136 -139 0
138 -139 0
136 -138 139 0
c gate 140 136 -138 0
136 -140 0
-138 -140 0
-136 138 140 0
c gate 141 -139 -140 0
-139 -141 0
-140 -141 0
139 140 141 0
c gate 142 90 -117 0
90 -142 0
-117 -142 0
-90 117 142 0
c gate 143 -87 125 0
-87 -143 0
125 -143 0
87 -125 143 0
c gate 144 -142 143 0
-142 -144 0
143 -144 0
142 -143 144 0
c gate 145 121 144 0
121 -145 0
144 -145 0
-121 -144 145 0
c gate 146 141 145 0
141 -146 0
145 -146 0
-141 -145 146 0
c gate 147 70 -132 0
70 -147 0
-132 -147 0
-70 132 147 0
c gate 148 -70 132 0
-70 -148 0
132 -148 0
70 -132 148 0
c gate 149 -147 -148 0
-147 -149 0
-148 -149 0
147 148 149 0
c gate 150 -70 -83 0
-70 -150 0
-83 -150 0
70 83 150 0
c gate 151 -84 -150 0
-84 -151 0
-150 -151 0
84 150 151 0
c gate 152 -149 151 0
-149 -152 0
151 -152 0
149 -151 152 0
c gate 153 149 -151 0
149 -153 0
-151 -153 0
-149 151 153 0
c gate 154 -73 -81 0
-73 -154 0
-81 -154 0
73 81 154 0
c gate 155 -82 -154 0
-82 -155 0
-154 -155 0
82 154 155 0
c gate 156 -73 130 0
-73 -156 0
130 -156 0
73 -130 156 0
c gate 157 -131 -156 0
-131 -157 0
-156 -157 0
131 156 157 0
c gate 158 -155 -157 0
-155 -158 0
-157 -158 0
155 157 158 0
c gate 159 155 157 0
155 -159 0
157 -159 0
-155 -157 159 0
c gate 160 -77 -85 0
-77 -160 0
-85 -160 0
77 85 160 0
c gate 161 126 -160 0
126 -161 0
-160 -161 0
-126 160 161 0
c gate 162 -140 -161 0
-140 -162 0
-161 -162 0
140 161 162 0
c gate 163 -159 -162 0
-159 -163 0
-162 -163 0
159 162 163 0
c gate 164 -158 -163 0
-158 -164 0
-163 -164 0
158 163 164 0
c gate 165 -153 -164 0
-153 -165 0
-164 -165 0
153 164 165 0
c gate 166 -152 -165 0
-152 -166 0
-165 -166 0
152 165 166 0
c gate 167 -146 166 0
-146 -167 0
166 -167 0
146 -166 167 0
c gate 168 -112 -126 0
-112 -168 0
-126 -168 0
112 126 168 0
c gate 169 141 168 0
141 -169 0
168 -169 0
-141 -168 169 0
c gate 170 -167 -169 0
-167 -170 0
-169 -170 0
167 169 170 0
c gate 171 134 170 0
134 -171 0
170 -171 0
-134 -170 171 0
c gate 172 -39 61 0
-39 -172 0
61 -172 0
39 -61 172 0
c gate 173 -61 -68 0
-61 -173 0
-68 -173 0
61 68 173 0
c gate 174 -84 173 0
-84 -174 0
173 -174 0
84 -173 174 0
c gate 175 147 174 0
147 -175 0
174 -175 0
-147 -174 175 0
c gate 176 -172 -175 0
-172 -176 0
-175 -176 0
172 175 176 0
c gate 177 -171 176 0
-171 -177 0
176 -177 0
171 -176 177 0
c gate 178 10 -26 0
10 -178 0
-26 -178 0
-10 26 178 0
c gate 179 9 -25 0
9 -179 0
-25 -179 0
-9 25 179 0
c gate 180 -9 25 0
-9 -180 0
25 -180 0
9 -25 180 0
c gate 181 8 -24 0
8 -181 0
-24 -181 0
-8 24 181 0
c gate 182 -64 -181 0
-64 -182 0
-181 -182 0
64 181 182 0
c gate 183 -180 -182 0
-180 -183 0
-182 -183 0
180 182 183 0
c gate 184 -179 -183 0
-179 -184 0
-183 -184 0
179 183 184 0
c gate 185 -87 -88 0
-87 -185 0
-88 -185 0
87 88 185 0
c gate 186 -184 -185 0
-184 -186 0
-185 -186 0
184 185 186 0
c gate 187 -178 -186 0
-178 -187 0
-186 -187 0
178 186 187 0
c gate 188 -86 -122 0
-86 -188 0
-122 -188 0
86 122 188 0
c gate 189 187 -188 0
187 -189 0
-188 -189 0
-187 188 189 0
c gate 190 -70 -76 0
-70 -190 0
-76 -190 0
70 76 190 0
c gate 191 -73 -160 0
-73 -191 0
-160 -191 0
73 160 191 0
c gate 192 -124 191 0
-124 -192 0
191 -192 0
124 -191 192 0
c gate 193 190 192 0
190 -193 0
192 -193 0
-190 -192 193 0
c gate 194 189 193 0
189 -194 0
193 -194 0
-189 -193 194 0
c gate 195 -187 188 0
-187 -195 0
188 -195 0
187 -188 195 0
c gate 196 -189 -195 0
-189 -196 0
-195 -196 0
189 195 196 0
c gate 197 -179 -181 0
-179 -197 0
-181 -197 0
179 181 197 0
c gate 198 -185 -197 0
-185 -198 0
-197 -198 0
185 197 198 0
c gate 199 -178 -198 0
-178 -199 0
-198 -199 0
178 198 199 0
c gate 200 188 -199 0
188 -200 0
-199 -200 0
-188 199 200 0
c gate 201 -196 -200 0
-196 -201 0
-200 -201 0
196 200 201 0
c gate 202 185 197 0
185 -202 0
197 -202 0
-185 -197 202 0
c gate 203 -198 -202 0
-198 -203 0
-202 -203 0
198 202 203 0
c gate 204 184 185 0
184 -204 0
185 -204 0
-184 -185 204 0
c gate 205 -186 -204 0
-186 -205 0
-204 -205 0
186 204 205 0
c gate 206 203 -205 0
203 -206 0
-205 -206 0
-203 205 206 0
c gate 207 -203 205 0
-203 -207 0
205 -207 0
203 -205 207 0
c gate 208 -66 177 0
-66 -208 0
177 -208 0
66 -177 208 0
c gate 209 -64 -208 0
-64 -209 0
-208 -209 0
64 208 209 0
c gate 210 -179 -180 0
-179 -210 0
-180 -210 0
179 180 210 0
c gate 211 64 -210 0
64 -211 0
-210 -211 0
-64 210 211 0
c gate 212 -209 -211 0
-209 -212 0
-211 -212 0
209 211 212 0
c gate 213 -207 212 0
-207 -213 0
212 -213 0
207 -212 213 0
c gate 214 -206 -213 0
-206 -214 0
-213 -214 0
206 213 214 0
c gate 215 -201 -214 0
-201 -215 0
-214 -215 0
201 214 215 0
c gate 216 187 200 0
187 -216 0
200 -216 0
-187 -200 216 0
c gate 217 -189 -216 0
-189 -217 0
-216 -217 0
189 216 217 0
c gate 218 -215 217 0
-215 -218 0
217 -218 0
215 -217 218 0
c gate 219 -194 -218 0
-194 -219 0
-218 -219 0
194 218 219 0
c gate 220 -177 219 0
-177 -220 0
219 -220 0
177 -219 220 0
c gate 221 91 94 0
91 -221 0
94 -221 0
-91 -94 221 0
c gate 222 -109 -221 0
-109 -222 0
-221 -222 0
109 221 222 0
c gate 223 -111 222 0
-111 -223 0
222 -223 0
111 -222 223 0
c gate 224 -145 -223 0
-145 -224 0
-223 -224 0
145 223 224 0
c gate 225 -126 -224 0
-126 -225 0
-224 -225 0
126 224 225 0
c gate 226 141 225 0
141 -226 0
225 -226 0
-141 -225 226 0
c gate 227 166 -226 0
166 -227 0
-226 -227 0
-166 226 227 0
c gate 228 134 -227 0
134 -228 0
-227 -228 0
-134 227 228 0
c gate 229 176 -228 0
176 -229 0
-228 -229 0
-176 228 229 0
c gate 230 -219 229 0
-219 -230 0
229 -230 0
219 -229 230 0
c gate 231 -220 -230 0
-220 -231 0
-230 -231 0
220 230 231 0
c gate 232 67 231 0
67 -232 0
231 -232 0
-67 -231 232 0
c gate 233 -67 -231 0
-67 -233 0
-231 -233 0
67 231 233 0
c gate 234 -232 -233 0
-232 -234 0
-233 -234 0
232 233 234 0
c PO
234 0
